% Logging successfully configured
%%%mzn-stat: initTime=0.002983829
%%%mzn-stat: objective=963
%%%mzn-stat: nodes=133
%%%mzn-stat: restarts=0
%%%mzn-stat: peakDepth=131
%%%mzn-stat: solveTime=0.000944402
%%%mzn-stat: variables=296
%%%mzn-stat: propagators=197
%%%mzn-stat: failures=2
%%%mzn-stat: propagations=709
%%%mzn-stat: nogoods=2
%%%mzn-stat: numAtomicConstraintsPropagated=0
%%%mzn-stat: allDifferentNumber1PropagationsTotal=37
%%%mzn-stat: allDifferentNumber1PropagationsThatFoundConflict=0
%%%mzn-stat: allDifferentNumber1PropagationsThatPruned=19
%%%mzn-stat: allDifferentNumber1TotalValuesPruned=77
%%%mzn-stat: allDifferentNumber1TotalHallSetSizeConflict=0
%%%mzn-stat: allDifferentNumber1NumberOfConflicts=0
%%%mzn-stat: allDifferentNumber1MaxHallSetSizeConflict=0
%%%mzn-stat: allDifferentNumber1TotalPruningHallSetSize=150
%%%mzn-stat: allDifferentNumber1NumberOfPruningExplanations=77
%%%mzn-stat: allDifferentNumber1MaxPruningHallSetSize=11
%%%mzn-stat: allDifferentNumber1TotalFixedEdgesAtConflict=0
%%%mzn-stat: allDifferentNumber1TotalVarsInvolvedInPruning=73
%%%mzn-stat: allDifferentNumber1MaxValuesPrunedFromSingleVar=3
%%%mzn-stat: allDifferentNumber1TotalSccSizeAtPruning=91
%%%mzn-stat: allDifferentNumber1NumberOfSccPruningCalls=19
%%%mzn-stat: circuitNumber2PropagationsThatFoundConflict=2
%%%mzn-stat: circuitNumber2TotalFixedEdgesAtConflict=34
%%%mzn-stat: circuitNumber2NumberOfConflicts=2
%%%mzn-stat: circuitNumber2PropagationsThatPruned=3
%%%mzn-stat: circuitNumber2PropagationsTotal=21
%%%mzn-stat: AverageConflictSize=17
%%%mzn-stat: NumUnitNogoodsLearned=0
%%%mzn-stat: AverageLearnedNogoodLength=10.5
%%%mzn-stat: AverageBacktrackAmount=0
%%%mzn-stat: AverageLbd=10.5
%%%mzn-stat: 2AutonomousSearchNumBackupCalled=120
%%%mzn-stat: 2AutonomousSearchNumPredicatesRemoved=0
%%%mzn-stat: 2AutonomousSearchNumCalls=121
%%%mzn-stat: 2AutonomousSearchNumPredicatesAdded=130
%%%mzn-stat: 2AutonomousSearchAverageSizeOfHeap=1.0743801652892562
%%%mzn-stat: 2AutonomousSearchNumAssignedPredicatesEncountered=130
%%%mzn-stat-end
maxleg = 963;
succ = array1d(1..20,[2, 4, 5, 3, 6, 7, 11, 9, 14, 17, 15, 13, 19, 1, 16, 18, 8, 12, 20, 10]);
% time elapsed: 0.70 s
----------
%%%mzn-stat: initTime=0.002983829
%%%mzn-stat: objective=933
%%%mzn-stat: nodes=268
%%%mzn-stat: restarts=0
%%%mzn-stat: peakDepth=131
%%%mzn-stat: solveTime=0.002659911
%%%mzn-stat: variables=296
%%%mzn-stat: propagators=197
%%%mzn-stat: failures=10
%%%mzn-stat: propagations=1239
%%%mzn-stat: nogoods=10
%%%mzn-stat: numAtomicConstraintsPropagated=0
%%%mzn-stat: allDifferentNumber1PropagationsTotal=94
%%%mzn-stat: allDifferentNumber1PropagationsThatFoundConflict=0
%%%mzn-stat: allDifferentNumber1PropagationsThatPruned=48
%%%mzn-stat: allDifferentNumber1TotalValuesPruned=172
%%%mzn-stat: allDifferentNumber1TotalHallSetSizeConflict=0
%%%mzn-stat: allDifferentNumber1NumberOfConflicts=0
%%%mzn-stat: allDifferentNumber1MaxHallSetSizeConflict=0
%%%mzn-stat: allDifferentNumber1TotalPruningHallSetSize=332
%%%mzn-stat: allDifferentNumber1NumberOfPruningExplanations=172
%%%mzn-stat: allDifferentNumber1MaxPruningHallSetSize=11
%%%mzn-stat: allDifferentNumber1TotalFixedEdgesAtConflict=0
%%%mzn-stat: allDifferentNumber1TotalVarsInvolvedInPruning=157
%%%mzn-stat: allDifferentNumber1MaxValuesPrunedFromSingleVar=4
%%%mzn-stat: allDifferentNumber1TotalSccSizeAtPruning=189
%%%mzn-stat: allDifferentNumber1NumberOfSccPruningCalls=48
%%%mzn-stat: circuitNumber2PropagationsThatFoundConflict=10
%%%mzn-stat: circuitNumber2TotalFixedEdgesAtConflict=170
%%%mzn-stat: circuitNumber2NumberOfConflicts=10
%%%mzn-stat: circuitNumber2PropagationsThatPruned=6
%%%mzn-stat: circuitNumber2PropagationsTotal=53
%%%mzn-stat: AverageConflictSize=14.7
%%%mzn-stat: NumUnitNogoodsLearned=0
%%%mzn-stat: AverageLearnedNogoodLength=10.9
%%%mzn-stat: AverageBacktrackAmount=0
%%%mzn-stat: AverageLbd=10.1
%%%mzn-stat: 2AutonomousSearchNumBackupCalled=232
%%%mzn-stat: 2AutonomousSearchNumPredicatesRemoved=0
%%%mzn-stat: 2AutonomousSearchNumCalls=234
%%%mzn-stat: 2AutonomousSearchNumPredicatesAdded=258
%%%mzn-stat: 2AutonomousSearchAverageSizeOfHeap=1.4230769230769231
%%%mzn-stat: 2AutonomousSearchNumAssignedPredicatesEncountered=333
%%%mzn-stat-end
maxleg = 933;
succ = array1d(1..20,[2, 12, 4, 1, 3, 5, 6, 9, 11, 17, 15, 13, 14, 19, 16, 18, 8, 7, 20, 10]);
% time elapsed: 0.70 s
----------
%%%mzn-stat: initTime=0.002983829
%%%mzn-stat: objective=454
%%%mzn-stat: nodes=390
%%%mzn-stat: restarts=0
%%%mzn-stat: peakDepth=131
%%%mzn-stat: solveTime=0.003160952
%%%mzn-stat: variables=296
%%%mzn-stat: propagators=197
%%%mzn-stat: failures=10
%%%mzn-stat: propagations=1597
%%%mzn-stat: nogoods=10
%%%mzn-stat: numAtomicConstraintsPropagated=0
%%%mzn-stat: allDifferentNumber1PropagationsTotal=122
%%%mzn-stat: allDifferentNumber1PropagationsThatFoundConflict=0
%%%mzn-stat: allDifferentNumber1PropagationsThatPruned=62
%%%mzn-stat: allDifferentNumber1TotalValuesPruned=234
%%%mzn-stat: allDifferentNumber1TotalHallSetSizeConflict=0
%%%mzn-stat: allDifferentNumber1NumberOfConflicts=0
%%%mzn-stat: allDifferentNumber1MaxHallSetSizeConflict=0
%%%mzn-stat: allDifferentNumber1TotalPruningHallSetSize=453
%%%mzn-stat: allDifferentNumber1NumberOfPruningExplanations=234
%%%mzn-stat: allDifferentNumber1MaxPruningHallSetSize=11
%%%mzn-stat: allDifferentNumber1TotalFixedEdgesAtConflict=0
%%%mzn-stat: allDifferentNumber1TotalVarsInvolvedInPruning=214
%%%mzn-stat: allDifferentNumber1MaxValuesPrunedFromSingleVar=4
%%%mzn-stat: allDifferentNumber1TotalSccSizeAtPruning=251
%%%mzn-stat: allDifferentNumber1NumberOfSccPruningCalls=62
%%%mzn-stat: circuitNumber2PropagationsThatFoundConflict=10
%%%mzn-stat: circuitNumber2TotalFixedEdgesAtConflict=170
%%%mzn-stat: circuitNumber2NumberOfConflicts=10
%%%mzn-stat: circuitNumber2PropagationsThatPruned=7
%%%mzn-stat: circuitNumber2PropagationsTotal=67
%%%mzn-stat: AverageConflictSize=14.7
%%%mzn-stat: NumUnitNogoodsLearned=0
%%%mzn-stat: AverageLearnedNogoodLength=10.9
%%%mzn-stat: AverageBacktrackAmount=0
%%%mzn-stat: AverageLbd=10.1
%%%mzn-stat: 2AutonomousSearchNumBackupCalled=342
%%%mzn-stat: 2AutonomousSearchNumPredicatesRemoved=0
%%%mzn-stat: 2AutonomousSearchNumCalls=345
%%%mzn-stat: 2AutonomousSearchNumPredicatesAdded=258
%%%mzn-stat: 2AutonomousSearchAverageSizeOfHeap=1.5536231884057972
%%%mzn-stat: 2AutonomousSearchNumAssignedPredicatesEncountered=536
%%%mzn-stat-end
maxleg = 454;
succ = array1d(1..20,[2, 12, 4, 6, 3, 7, 11, 9, 14, 17, 10, 18, 1, 20, 5, 15, 8, 16, 13, 19]);
% time elapsed: 0.70 s
----------
%%%mzn-stat: initTime=0.002983829
%%%mzn-stat: objective=437
%%%mzn-stat: nodes=508
%%%mzn-stat: restarts=0
%%%mzn-stat: peakDepth=131
%%%mzn-stat: solveTime=0.003644923
%%%mzn-stat: variables=296
%%%mzn-stat: propagators=197
%%%mzn-stat: failures=10
%%%mzn-stat: propagations=1959
%%%mzn-stat: nogoods=10
%%%mzn-stat: numAtomicConstraintsPropagated=0
%%%mzn-stat: allDifferentNumber1PropagationsTotal=146
%%%mzn-stat: allDifferentNumber1PropagationsThatFoundConflict=0
%%%mzn-stat: allDifferentNumber1PropagationsThatPruned=74
%%%mzn-stat: allDifferentNumber1TotalValuesPruned=294
%%%mzn-stat: allDifferentNumber1TotalHallSetSizeConflict=0
%%%mzn-stat: allDifferentNumber1NumberOfConflicts=0
%%%mzn-stat: allDifferentNumber1MaxHallSetSizeConflict=0
%%%mzn-stat: allDifferentNumber1TotalPruningHallSetSize=648
%%%mzn-stat: allDifferentNumber1NumberOfPruningExplanations=294
%%%mzn-stat: allDifferentNumber1MaxPruningHallSetSize=17
%%%mzn-stat: allDifferentNumber1TotalFixedEdgesAtConflict=0
%%%mzn-stat: allDifferentNumber1TotalVarsInvolvedInPruning=265
%%%mzn-stat: allDifferentNumber1MaxValuesPrunedFromSingleVar=5
%%%mzn-stat: allDifferentNumber1TotalSccSizeAtPruning=339
%%%mzn-stat: allDifferentNumber1NumberOfSccPruningCalls=74
%%%mzn-stat: circuitNumber2PropagationsThatFoundConflict=10
%%%mzn-stat: circuitNumber2TotalFixedEdgesAtConflict=170
%%%mzn-stat: circuitNumber2NumberOfConflicts=10
%%%mzn-stat: circuitNumber2PropagationsThatPruned=9
%%%mzn-stat: circuitNumber2PropagationsTotal=80
%%%mzn-stat: AverageConflictSize=14.7
%%%mzn-stat: NumUnitNogoodsLearned=0
%%%mzn-stat: AverageLearnedNogoodLength=10.9
%%%mzn-stat: AverageBacktrackAmount=0
%%%mzn-stat: AverageLbd=10.1
%%%mzn-stat: 2AutonomousSearchNumBackupCalled=450
%%%mzn-stat: 2AutonomousSearchNumPredicatesRemoved=0
%%%mzn-stat: 2AutonomousSearchNumCalls=454
%%%mzn-stat: 2AutonomousSearchNumPredicatesAdded=258
%%%mzn-stat: 2AutonomousSearchAverageSizeOfHeap=1.6277533039647578
%%%mzn-stat: 2AutonomousSearchNumAssignedPredicatesEncountered=739
%%%mzn-stat-end
maxleg = 437;
succ = array1d(1..20,[2, 12, 4, 6, 3, 7, 11, 9, 14, 17, 10, 18, 1, 20, 16, 5, 8, 15, 13, 19]);
% time elapsed: 0.70 s
----------
%%%mzn-stat: initTime=0.002983829
%%%mzn-stat: objective=424
%%%mzn-stat: nodes=628
%%%mzn-stat: restarts=0
%%%mzn-stat: peakDepth=131
%%%mzn-stat: solveTime=0.004879491
%%%mzn-stat: variables=296
%%%mzn-stat: propagators=197
%%%mzn-stat: failures=16
%%%mzn-stat: propagations=2451
%%%mzn-stat: nogoods=16
%%%mzn-stat: numAtomicConstraintsPropagated=0
%%%mzn-stat: allDifferentNumber1PropagationsTotal=186
%%%mzn-stat: allDifferentNumber1PropagationsThatFoundConflict=0
%%%mzn-stat: allDifferentNumber1PropagationsThatPruned=98
%%%mzn-stat: allDifferentNumber1TotalValuesPruned=438
%%%mzn-stat: allDifferentNumber1TotalHallSetSizeConflict=0
%%%mzn-stat: allDifferentNumber1NumberOfConflicts=0
%%%mzn-stat: allDifferentNumber1MaxHallSetSizeConflict=0
%%%mzn-stat: allDifferentNumber1TotalPruningHallSetSize=1198
%%%mzn-stat: allDifferentNumber1NumberOfPruningExplanations=438
%%%mzn-stat: allDifferentNumber1MaxPruningHallSetSize=17
%%%mzn-stat: allDifferentNumber1TotalFixedEdgesAtConflict=0
%%%mzn-stat: allDifferentNumber1TotalVarsInvolvedInPruning=369
%%%mzn-stat: allDifferentNumber1MaxValuesPrunedFromSingleVar=6
%%%mzn-stat: allDifferentNumber1TotalSccSizeAtPruning=524
%%%mzn-stat: allDifferentNumber1NumberOfSccPruningCalls=98
%%%mzn-stat: circuitNumber2PropagationsThatFoundConflict=16
%%%mzn-stat: circuitNumber2TotalFixedEdgesAtConflict=236
%%%mzn-stat: circuitNumber2NumberOfConflicts=16
%%%mzn-stat: circuitNumber2PropagationsThatPruned=14
%%%mzn-stat: circuitNumber2PropagationsTotal=104
%%%mzn-stat: AverageConflictSize=10.3125
%%%mzn-stat: NumUnitNogoodsLearned=0
%%%mzn-stat: AverageLearnedNogoodLength=13.625
%%%mzn-stat: AverageBacktrackAmount=0
%%%mzn-stat: AverageLbd=8.6875
%%%mzn-stat: 2AutonomousSearchNumBackupCalled=554
%%%mzn-stat: 2AutonomousSearchNumPredicatesRemoved=0
%%%mzn-stat: 2AutonomousSearchNumCalls=559
%%%mzn-stat: 2AutonomousSearchNumPredicatesAdded=375
%%%mzn-stat: 2AutonomousSearchAverageSizeOfHeap=1.8711985688729875
%%%mzn-stat: 2AutonomousSearchNumAssignedPredicatesEncountered=1046
%%%mzn-stat-end
maxleg = 424;
succ = array1d(1..20,[2, 12, 4, 6, 3, 8, 11, 17, 10, 14, 15, 18, 1, 20, 16, 5, 9, 7, 13, 19]);
% time elapsed: 0.70 s
----------
%%%mzn-stat: initTime=0.002983829
%%%mzn-stat: objective=421
%%%mzn-stat: nodes=739
%%%mzn-stat: restarts=0
%%%mzn-stat: peakDepth=131
%%%mzn-stat: solveTime=0.005589393
%%%mzn-stat: variables=296
%%%mzn-stat: propagators=197
%%%mzn-stat: failures=18
%%%mzn-stat: propagations=2865
%%%mzn-stat: nogoods=18
%%%mzn-stat: numAtomicConstraintsPropagated=0
%%%mzn-stat: allDifferentNumber1PropagationsTotal=214
%%%mzn-stat: allDifferentNumber1PropagationsThatFoundConflict=0
%%%mzn-stat: allDifferentNumber1PropagationsThatPruned=113
%%%mzn-stat: allDifferentNumber1TotalValuesPruned=499
%%%mzn-stat: allDifferentNumber1TotalHallSetSizeConflict=0
%%%mzn-stat: allDifferentNumber1NumberOfConflicts=0
%%%mzn-stat: allDifferentNumber1MaxHallSetSizeConflict=0
%%%mzn-stat: allDifferentNumber1TotalPruningHallSetSize=1413
%%%mzn-stat: allDifferentNumber1NumberOfPruningExplanations=499
%%%mzn-stat: allDifferentNumber1MaxPruningHallSetSize=17
%%%mzn-stat: allDifferentNumber1TotalFixedEdgesAtConflict=0
%%%mzn-stat: allDifferentNumber1TotalVarsInvolvedInPruning=421
%%%mzn-stat: allDifferentNumber1MaxValuesPrunedFromSingleVar=6
%%%mzn-stat: allDifferentNumber1TotalSccSizeAtPruning=590
%%%mzn-stat: allDifferentNumber1NumberOfSccPruningCalls=113
%%%mzn-stat: circuitNumber2PropagationsThatFoundConflict=18
%%%mzn-stat: circuitNumber2TotalFixedEdgesAtConflict=266
%%%mzn-stat: circuitNumber2NumberOfConflicts=18
%%%mzn-stat: circuitNumber2PropagationsThatPruned=17
%%%mzn-stat: circuitNumber2PropagationsTotal=120
%%%mzn-stat: AverageConflictSize=10.61111111111111
%%%mzn-stat: NumUnitNogoodsLearned=0
%%%mzn-stat: AverageLearnedNogoodLength=14.055555555555555
%%%mzn-stat: AverageBacktrackAmount=0
%%%mzn-stat: AverageLbd=8.666666666666666
%%%mzn-stat: 2AutonomousSearchNumBackupCalled=652
%%%mzn-stat: 2AutonomousSearchNumPredicatesRemoved=0
%%%mzn-stat: 2AutonomousSearchNumCalls=658
%%%mzn-stat: 2AutonomousSearchNumPredicatesAdded=437
%%%mzn-stat: 2AutonomousSearchAverageSizeOfHeap=2.1003039513677813
%%%mzn-stat: 2AutonomousSearchNumAssignedPredicatesEncountered=1382
%%%mzn-stat-end
maxleg = 421;
succ = array1d(1..20,[2, 12, 4, 6, 3, 8, 15, 17, 10, 14, 7, 13, 19, 1, 18, 5, 9, 16, 20, 11]);
% time elapsed: 0.70 s
----------
%%%mzn-stat: initTime=0.002983829
%%%mzn-stat: objective=417
%%%mzn-stat: nodes=841
%%%mzn-stat: restarts=0
%%%mzn-stat: peakDepth=131
%%%mzn-stat: solveTime=0.006158263
%%%mzn-stat: variables=296
%%%mzn-stat: propagators=197
%%%mzn-stat: failures=19
%%%mzn-stat: propagations=3257
%%%mzn-stat: nogoods=19
%%%mzn-stat: numAtomicConstraintsPropagated=0
%%%mzn-stat: allDifferentNumber1PropagationsTotal=238
%%%mzn-stat: allDifferentNumber1PropagationsThatFoundConflict=0
%%%mzn-stat: allDifferentNumber1PropagationsThatPruned=126
%%%mzn-stat: allDifferentNumber1TotalValuesPruned=560
%%%mzn-stat: allDifferentNumber1TotalHallSetSizeConflict=0
%%%mzn-stat: allDifferentNumber1NumberOfConflicts=0
%%%mzn-stat: allDifferentNumber1MaxHallSetSizeConflict=0
%%%mzn-stat: allDifferentNumber1TotalPruningHallSetSize=1630
%%%mzn-stat: allDifferentNumber1NumberOfPruningExplanations=560
%%%mzn-stat: allDifferentNumber1MaxPruningHallSetSize=17
%%%mzn-stat: allDifferentNumber1TotalFixedEdgesAtConflict=0
%%%mzn-stat: allDifferentNumber1TotalVarsInvolvedInPruning=471
%%%mzn-stat: allDifferentNumber1MaxValuesPrunedFromSingleVar=6
%%%mzn-stat: allDifferentNumber1TotalSccSizeAtPruning=656
%%%mzn-stat: allDifferentNumber1NumberOfSccPruningCalls=126
%%%mzn-stat: circuitNumber2PropagationsThatFoundConflict=19
%%%mzn-stat: circuitNumber2TotalFixedEdgesAtConflict=286
%%%mzn-stat: circuitNumber2NumberOfConflicts=19
%%%mzn-stat: circuitNumber2PropagationsThatPruned=20
%%%mzn-stat: circuitNumber2PropagationsTotal=134
%%%mzn-stat: AverageConflictSize=10.31578947368421
%%%mzn-stat: NumUnitNogoodsLearned=0
%%%mzn-stat: AverageLearnedNogoodLength=13.894736842105264
%%%mzn-stat: AverageBacktrackAmount=0
%%%mzn-stat: AverageLbd=8.631578947368421
%%%mzn-stat: 2AutonomousSearchNumBackupCalled=743
%%%mzn-stat: 2AutonomousSearchNumPredicatesRemoved=0
%%%mzn-stat: 2AutonomousSearchNumCalls=750
%%%mzn-stat: 2AutonomousSearchNumPredicatesAdded=499
%%%mzn-stat: 2AutonomousSearchAverageSizeOfHeap=2.3066666666666666
%%%mzn-stat: 2AutonomousSearchNumAssignedPredicatesEncountered=1730
%%%mzn-stat-end
maxleg = 417;
succ = array1d(1..20,[2, 12, 4, 6, 3, 8, 15, 17, 10, 14, 7, 19, 1, 13, 18, 5, 9, 16, 20, 11]);
% time elapsed: 0.70 s
----------
==========
% time elapsed: 0.70 s
%%%mzn-stat: initTime=0.002983829
%%%mzn-stat: objective=417
%%%mzn-stat: nodes=841
%%%mzn-stat: restarts=0
%%%mzn-stat: peakDepth=131
%%%mzn-stat: solveTime=0.006269821
%%%mzn-stat: variables=296
%%%mzn-stat: propagators=197
%%%mzn-stat: failures=20
%%%mzn-stat: propagations=3319
%%%mzn-stat: nogoods=20
%%%mzn-stat: numAtomicConstraintsPropagated=0
%%%mzn-stat: allDifferentNumber1PropagationsTotal=239
%%%mzn-stat: allDifferentNumber1PropagationsThatFoundConflict=0
%%%mzn-stat: allDifferentNumber1PropagationsThatPruned=127
%%%mzn-stat: allDifferentNumber1TotalValuesPruned=568
%%%mzn-stat: allDifferentNumber1TotalHallSetSizeConflict=0
%%%mzn-stat: allDifferentNumber1NumberOfConflicts=0
%%%mzn-stat: allDifferentNumber1MaxHallSetSizeConflict=0
%%%mzn-stat: allDifferentNumber1TotalPruningHallSetSize=1710
%%%mzn-stat: allDifferentNumber1NumberOfPruningExplanations=568
%%%mzn-stat: allDifferentNumber1MaxPruningHallSetSize=19
%%%mzn-stat: allDifferentNumber1TotalFixedEdgesAtConflict=0
%%%mzn-stat: allDifferentNumber1TotalVarsInvolvedInPruning=476
%%%mzn-stat: allDifferentNumber1MaxValuesPrunedFromSingleVar=6
%%%mzn-stat: allDifferentNumber1TotalSccSizeAtPruning=693
%%%mzn-stat: allDifferentNumber1NumberOfSccPruningCalls=127
%%%mzn-stat: circuitNumber2PropagationsThatFoundConflict=20
%%%mzn-stat: circuitNumber2TotalFixedEdgesAtConflict=288
%%%mzn-stat: circuitNumber2NumberOfConflicts=20
%%%mzn-stat: circuitNumber2PropagationsThatPruned=20
%%%mzn-stat: circuitNumber2PropagationsTotal=135
%%%mzn-stat: AverageConflictSize=9.9
%%%mzn-stat: NumUnitNogoodsLearned=1
%%%mzn-stat: AverageLearnedNogoodLength=13.25
%%%mzn-stat: AverageBacktrackAmount=0
%%%mzn-stat: AverageLbd=8.25
%%%mzn-stat: 2AutonomousSearchNumBackupCalled=743
%%%mzn-stat: 2AutonomousSearchNumPredicatesRemoved=0
%%%mzn-stat: 2AutonomousSearchNumCalls=750
%%%mzn-stat: 2AutonomousSearchNumPredicatesAdded=586
%%%mzn-stat: 2AutonomousSearchAverageSizeOfHeap=2.3066666666666666
%%%mzn-stat: 2AutonomousSearchNumAssignedPredicatesEncountered=1730
%%%mzn-stat-end
